single_objective/SL-DABL/OP/problems/op/OPLib-master/solutions/ea4op/gen3/pcb442-gen3-50.sol
NAME : pcb442
TYPE : OP
DIMENSION : 442
COST_LIMIT : 25389
ROUTE_NODES : 234
ROUTE_SCORE : 14522
ROUTE_COST : 25389
NODE_SEQUENCE_SECTION
1
34
66
103
114
126
136
149
161
172
185
400
405
227
234
238
266
269
273
276
279
281
282
308
309
310
339
433
348
349
350
351
352
343
353
354
355
434
356
357
358
435
359
360
361
344
362
363
364
365
366
345
367
368
369
370
371
372
373
374
375
338
337
427
336
335
334
307
333
332
331
306
305
330
329
304
303
328
327
302
301
326
325
300
299
429
324
298
297
323
322
296
295
294
320
319
293
292
318
317
316
290
289
288
424
421
425
415
249
250
251
252
253
254
255
256
257
258
259
260
419
422
438
423
272
420
268
416
264
263
262
261
413
412
408
409
404
217
205
206
207
195
196
197
182
169
158
146
133
123
124
134
147
159
170
183
198
209
219
411
410
414
237
226
220
210
199
184
171
160
148
135
125
113
383
384
98
97
380
96
379
95
63
64
65
33
377
376
32
31
30
29
62
94
436
101
93
61
28
27
60
92
91
59
26
25
58
57
89
88
378
87
55
22
21
54
86
85
84
83
82
81
80
79
78
77
44
43
42
41
40
39
38
37
-1
DEPOT_SECTION
1
-1
EOF
